c b=4,c=273
p cnf 16 24
4 -8 0
4 -12 0
4 -16 0
-4 8 0
-4 12 0
-4 16 0
3 -7 0
3 -11 0
3 -15 0
-3 7 0
-3 11 0
-3 15 0
2 -6 0
2 -10 0
2 -14 0
-2 6 0
-2 10 0
-2 14 0
1 -5 0
1 -9 0
1 -13 0
-1 5 0
-1 9 0
-1 13 0
